============================[ Problem Statistics ]=============================|                                                                             ||  Number of variables:          4242                                         ||  Number of clauses:           10438                                         ||  Parse time:                   0.81 s                                       ||                                                                             |============================[ Search Statistics ]==============================| Conflicts |          ORIGINAL         |          LEARNT          | Progress ||           |    Vars  Clauses Literals |    Limit  Clauses Lit/Cl |          |===============================================================================|       100 |    1591     6643  1316414 |     2435      100     53 | 62.501 % ||       250 |    1591     6643  1316414 |     2679      250     75 | 62.495 % |===============================================================================restarts              : 4conflicts             : 445            (357 /sec)decisions             : 804            (0.00 % random) (645 /sec)propagations          : 13734          (11022 /sec)conflict literals     : 37630          (94.47 % deleted)CPU time              : 1.246 sSATISFIABLE